(set-info :smt-lib-version 2.6)
(set-logic QF_S)
(set-info :source |
Generated by: Oliver Markgraf, Hongjian Jiang, Daniel Stan, Anthony W. Lin, Philipp Ruemmer
Generated on: 2025-04-08
Application: Using String Solvers to solve RMC problems encoded as CHC over Strings
Target solver: cvc5, OSTRICH, Z3, Z3alpha, Z3-noodler
Time limit: 60.0
Benchmarks are extracted by running HornStr https://arg-git.informatik.uni-kl.de/pub/string-chc-lib on all benchmarks
provided in the repository and gathering the string queries sent to the string solvers.
|)
(set-info :license "https://creativecommons.org/licenses/by/4.0/")
(set-info :category "industrial")
(set-info :status unknown)
(declare-fun varout () String)
(assert (let ((a!1 (re.union (re.union (re.union (str.to_re "b") (str.to_re "n"))
                               (str.to_re "t"))
                     (str.to_re "m"))))
  (str.in_re varout (re.* a!1))))
(declare-fun varin () String)
(assert (let ((a!1 (re.union (re.union (re.union (str.to_re "b") (str.to_re "n"))
                               (str.to_re "t"))
                     (str.to_re "m"))))
  (str.in_re varin (re.* a!1))))
(declare-fun X () String)
(declare-fun isin () Bool)
(declare-fun isout () Bool)
(assert (let ((a!1 (re.++ (re.++ (re.* (str.to_re "n")) (str.to_re "b"))
                  (re.* (str.to_re "n")))))
  (or (and (str.in_re X a!1) true (= X varin) isin (not isout)))))
(assert (let ((a!1 (re.++ (re.union (str.to_re "n") (str.to_re "m"))
                  (re.* (re.union (str.to_re "n") (str.to_re "m")))))
      (a!3 (re.++ (re.* (re.union (str.to_re "n") (str.to_re "m")))
                  (re.union (str.to_re "b") (str.to_re "t")))))
(let ((a!2 (re.++ (re.* (re.union (str.to_re "n") (str.to_re "m")))
                  (re.union (str.to_re "") a!1)))
      (a!4 (re.union (re.union (str.to_re "b") (str.to_re "t"))
                     (re.++ (re.union (str.to_re "n") (str.to_re "m")) a!3))))
(let ((a!5 (re.++ (re.* (re.union (str.to_re "n") (str.to_re "m"))) a!4))
      (a!7 (re.++ (re.union (re.union (str.to_re "b") (str.to_re "t"))
                            (str.to_re "m"))
                  a!2)))
(let ((a!6 (re.++ (re.union (re.union (str.to_re "b") (str.to_re "t"))
                            (str.to_re "m"))
                  a!5)))
(let ((a!8 (re.++ (re.* (re.union (str.to_re "n") a!6)) a!7)))
(let ((a!9 (re.union a!7 (re.++ (re.union (str.to_re "n") a!6) a!8))))
(let ((a!10 (re.++ (re.* (re.union (str.to_re "n") a!6)) a!9)))
  (str.in_re varin (re.union a!2 (re.++ a!5 a!10)))))))))))
(check-sat)
(exit)
